n= 4
m= 50
1000
2000
2500
3000
675	12	4
1246	16	4
1117	6	2
790	7	7
1859	5	5
502	36	9
699	28	7
272	6	2
1604	12	6
1907	8	2
1335	5	5
1530	12	4
793	36	9
1615	18	9
974	21	7
1432	20	5
693	2	1
790	32	8
755	4	4
1712	27	9
1585	9	9
1676	3	1
1085	9	9
942	24	8
1146	6	6
1447	1	1
832	18	6
688	6	6
1138	12	4
1136	6	2
575	9	9
2152	9	3
411	2	1
2048	10	5
653	28	7
2141	12	3
2363	4	1
575	1	1
1846	20	5
2396	6	6
1101	3	3
1677	8	4
850	36	9
735	8	4
550	36	9
2080	27	9
904	8	8
946	4	2
1689	14	7
2309	12	3
